p cnf 37 102
a 20 13 0
e 1 2 3 4 5 6 7 8 9 10 11 12 14 15 16 17 18 19 21 22 23 24 25 26 27 28 29 30 31 32 33 34 35 36 37 0
-4 2 0
-4 3 0
-2 -3 4 0
-5 -1 0
-5 -4 0
1 4 5 0
-5 -6 -7 0
5 6 -7 0
-5 6 7 0
5 -6 7 0
-10 -8 0
-10 9 0
8 -9 10 0
11 -10 0
11 -1 0
10 1 -11 0
7 11 -12 0
-7 -11 -12 0
7 -11 12 0
-7 11 12 0
-14 13 0
-14 -6 0
-13 6 14 0
-16 -14 0
-16 -15 0
14 15 16 0
-12 16 -17 0
12 -16 -17 0
-12 -16 17 0
12 16 17 0
-19 -2 0
-19 -18 0
2 18 19 0
14 -9 -20 0
-14 9 -20 0
14 9 20 0
-14 -9 20 0
-21 -13 -22 0
21 13 -22 0
-21 13 22 0
21 -13 22 0
-20 -22 -23 0
20 22 -23 0
-20 22 23 0
20 -22 23 0
24 -3 0
24 -8 0
3 8 -24 0
4 -21 -25 0
-4 21 -25 0
4 21 25 0
-4 -21 25 0
26 -24 0
26 25 0
24 -25 -26 0
27 -23 0
27 26 0
23 -26 -27 0
-28 19 0
-28 -27 0
-19 27 28 0
29 -17 0
29 -28 0
17 28 -29 0
-30 13 0
-30 3 0
-13 -3 30 0
-31 -30 0
-31 14 0
30 -14 31 0
-31 -21 -32 0
31 21 -32 0
-31 21 32 0
31 -21 32 0
-24 32 -33 0
24 -32 -33 0
-24 -32 33 0
24 32 33 0
29 33 -34 0
-29 -33 -34 0
29 -33 34 0
-29 33 34 0
24 8 -35 0
-24 -8 -35 0
24 -8 35 0
-24 8 35 0
-36 3 0
-36 35 0
-3 -35 36 0
37 -34 0
37 -36 0
34 36 -37 0
-35 3 2 -17 30 -16 -9 0
22 2 6 -23 -13 -15 0
-20 32 -16 0
14 5 24 21 13 -19 -22 0
8 -7 -24 12 -30 -33 0
26 12 -27 -15 0
-33 -19 -30 0
-27 5 24 10 1 -15 16 0
-8 4 36 -37 -7 19 0
37 0
